# config file for the vessel editor: adding some vessel(s)
# (the shortestPaths library will have to be re-created for the graph)
# --------------
# input folder for config file
C:/Users/fbas/Documents/GitHub/DISPLACE_input_gis/testexample
# input folder for DISPLACE
C:/Users/fbas/Documents/GitHub/DISPLACE_input_testexample
# name of the application
testexample
# name of the graph for this application
56
# append to existing vessel files
TRUE
# name gis file for total effort per polygon
SWE_gis_feffort_OTT_DEF_o105_1_120
# name_gis_layer_field
feffort
# is_gis_layer_field_relative_numbers
FALSE
# xfold_gis_layer_field
1
# vesselids
SWE_2
# vessel_range_km
100
# metierids
3
# metierids_frequencies
1
# visited_ports (look at the names in harbours.dat in /harboursspe)
Simrishamn Träslövsläge
# visited_ports_frequencies
0.9030469 0.09695309
# name_file_ports
harbours.dat
# nb fish or shellfish stocks (should be consistent with /popsspe)
2
# fixed cpue per stock on fgrounds(plan B)
103.743460908124 103.743460908124
# Gamma (shape parameter) cpue per stock on fgrounds (plan A but for implicit stocks or out of range nodes)
1 1
# Gamma (scale parameter) cpue per stock on fgrounds(plan A but for implicit stocks or out of range nodes)
103.743460908124 103.743460908124
# vessel features (speed, fuelconsrate, length, kW, carrying_capacity, tank_capacity, nb_pings_per_trip, shape_in_btw, scale_in_btw, av.trip.duration)
#  mult_fuelcons_when_steaming, mult_fuelcons_when_fishing, mult_fuelcons_when_returning, mult_fuelcons_when_inactive) 
10 239.9772 31.74 1000 180373 23074 10 0.4485 336.7618 20 1 0.9 1.1 0.15 5 6 5 22
# percent step in share for TAC (per stock) for these incoming vessels (only used if existing vessels)
0.09090909 0.09090909
# vessel effect (per stock) in the catch rate equation 
4.64201751670503 4.64201751670503
# create the file for fuel price per vessel size  
TRUE
# some fuel price per vessel size (Euro per litre) 
0.4 0.4 0.4 0.4 0.4
# i% fishing credits taken from incomers (for RTI management) 
0.09090909
