# config file for the vessel editor: adding some vessel(s)
# (the shortestPaths library will have to be re-created for the graph)
# --------------
# [input_folder_for_config_file]
C:/Users/fbas/Documents/GitHub/DISPLACE_input_gis/testexample
# [input_folder_for_DISPLACE]
C:/Users/fbas/Documents/GitHub/DISPLACE_input_testexample
# [name_of_the_application]
testexample
# [name_of_the_graph_for_this_application]
56
# [append_to_existing_vessel_files]
TRUE
# [name_gis_file_for_total_effort_per_polygon]
SWE_gis_feffort_OTT_CRU_70_89_2_35 SWE_gis_feffort_OTT_DEF_o105_1_120
# [name_gis_layer_field]
feffort feffort
# [is_gis_layer_field_relative_numbers]
FALSE
# [xfold_gis_layer_field]
1
# [vesselids]
SWE_1
# [vessel_range_km]
100
# [metierids]
2 3
# [metierids_frequencies]
0.6448583 0.3551417
# [visited_ports_but_look_at_names_in_harbours.dat_in_harboursspe_folder]
Sandvig Simrishamn Skillinge Träslövsläge Varberg
# [visited_ports_frequencies]
0.0125016 0.011572 0.01541864 0.331036 0.6294717
# [name_file_ports]
harbours.dat
# [nb_fish_or_shellfish_stocks_which_should_be_consistent_with_popsspe_folder]
2
# [fixed_cpue_per_stock_on_fgrounds_for_planB]
107.041597021588 107.041597021588
# [Gamma_shape_parameter_for_cpue_per_stock_on_fgrounds_for_planA_but_for_implicit_stocks_or_out_of_range_nodes]
1 1
# [Gamma_scale_parameter_for_cpue_per_stock_on_fgrounds_for_planA_but_for_implicit_stocks_or_out_of_range_nodes]
107.041597021588 107.041597021588
# [vessel_features_speed_fuelconsrate_length_kW_carryingcapacity_tankcapacity_nbpingspertrip_shapeinbtw_scaleinbtw_avtripduration]
# [multfuelconswhensteaming_multfuelconswhenfishing_multfuelconswhenreturning_multfuelconswheninactive]
10 83.98028 17.04 339 32851 9146 10 0.4485 336.7618 20 1 0.9 1.1 0.15 5 6 5 22
# [percent_step_in_share_for_TAC_per_stock_for_these_incoming_vessels_but_only_used_if_existing_vessels_already]
0.09090909 0.09090909
# [vessel_effect_per_stock_in_the_catch_rate_equation]
4.67331093338857 4.67331093338857
# [metier_effect_per_stock_in_the_catch_rate_equation]
0 0
0 0
# [avai_effect_per_size_group_per_stock_in_the_catch_rate_equation]
0 0 0 0 0 0 0 0 0 0 0 0 0 0
0 0 0 0 0 0 0 0 0 0 0 0 0 0
# [create_the_file_for_fuel_price_per_vessel_size]
TRUE
# [some_fuel_prices_per_vessel_size_euro_per_litre]
0.4 0.4 0.4 0.4 0.4
# [percent_fishing_credits_taken_by_incomers_for_RTI_management]
0.09090909
