# config file for the vessel editor: adding some vessel(s)
# (the shortestPaths library will have to be re-created for the graph)
# --------------
# [input_folder_for_config_file]
C:/Users/fbas/Documents/GitHub/DISPLACE_input_gis/testexample
# [input_folder_for_DISPLACE]
C:/Users/fbas/Documents/GitHub/DISPLACE_input_testexample
# [name_of_the_application]
testexample
# [name_of_the_graph_for_this_application]
56
# [append_to_existing_vessel_files]
TRUE
# [name_gis_file_for_total_effort_per_polygon]
DNK_gis_feffort_other
# [name_gis_layer_field]
feffort
# [is_gis_layer_field_relative_numbers]
FALSE
# [xfold_gis_layer_field]
1
# [vesselids]
DNK000001403
# [vessel_range_km]
100
# [metierids]
1
# [metierids_frequencies]
1
# [visited_ports_but_look_at_names_in_harbours.dat_in_harboursspe_folder]
NA52
# [visited_ports_frequencies]
1
# [name_file_ports]
harbours.dat
# [nb_fish_or_shellfish_stocks_which_should_be_consistent_with_popsspe_folder]
2
# [fixed_cpue_per_stock_on_fgrounds_for_planB]
0 0
# [Gamma_shape_parameter_for_cpue_per_stock_on_fgrounds_for_planA_but_for_implicit_stocks_or_out_of_range_nodes]
1 1
# [Gamma_scale_parameter_for_cpue_per_stock_on_fgrounds_for_planA_but_for_implicit_stocks_or_out_of_range_nodes]
0 0
# [vessel_features_speed_fuelconsrate_length_kW_carryingcapacity_tankcapacity_nbpingspertrip_shapeinbtw_scaleinbtw_avtripduration]
# [multfuelconswhensteaming_multfuelconswhenfishing_multfuelconswhenreturning_multfuelconswheninactive]
10 51.88408 15 203 23170 7565 10 0.4485 336.7618 20 1 0.9 1.1 0.15 5 6 5 22 1
# [percent_step_in_share_for_TAC_per_stock_for_these_incoming_vessels_but_only_used_if_existing_vessels_already]
0.09090909 0.09090909
# [vessel_effect_per_stock_in_the_catch_rate_equation]
-4.60517018598809 -4.60517018598809
# [metier_effect_per_stock_in_the_catch_rate_equation]
0
0
# [avai_effect_per_size_group_per_stock_in_the_catch_rate_equation]
0 0 0 0 0 0 0 0 0 0 0 0 0 0
0 0 0 0 0 0 0 0 0 0 0 0 0 0
# [create_the_file_for_fuel_price_per_vessel_size]
TRUE
# [some_fuel_prices_per_vessel_size_euro_per_litre]
0.4 0.4 0.4 0.4 0.4
# [percent_fishing_credits_taken_by_incomers_for_RTI_management]
0.09090909
